
Gurobi 9.5.2 (mac64[arm]) logging started Sun Apr  2 21:07:20 2023

Set parameter LogFile to value "./ccga_results/2023-04-02 21-07-18-902/MSP_TimeStampConvert_gurobi_log.txt"

Gurobi 9.5.2 (mac64[arm]) logging started Sun Apr  2 21:07:20 2023

Set parameter LogFile to value "./ccga_results/2023-04-02 21-07-18-902/MSP_TimeStampConvert_gurobi_log.txt"
Set parameter TimeLimit to value 180
Gurobi Optimizer version 9.5.2 build v9.5.2rc0 (mac64[arm])
Thread count: 8 physical cores, 8 logical processors, using up to 8 threads
Optimize a model with 100 rows, 77 columns and 242 nonzeros
Model fingerprint: 0xd266c645
Variable types: 5 continuous, 72 integer (72 binary)
Coefficient statistics:
  Matrix range     [1e+00, 1e+00]
  Objective range  [1e+00, 1e+00]
  Bounds range     [5e+02, 5e+02]
  RHS range        [1e+00, 1e+00]
Found heuristic solution: objective 2000.0000000

Explored 0 nodes (0 simplex iterations) in 0.00 seconds (0.00 work units)
Thread count was 1 (of 8 available processors)

Solution count 1: 2000 

Optimal solution found (tolerance 1.00e-03)
Best objective 2.000000000000e+03, best bound 2.000000000000e+03, gap 0.0000%

User-callback calls 21, time in user-callback 0.00 sec
Gurobi Optimizer version 9.5.2 build v9.5.2rc0 (mac64[arm])
Thread count: 8 physical cores, 8 logical processors, using up to 8 threads
Optimize a model with 353 rows, 161 columns and 1019 nonzeros
Model fingerprint: 0x448297de
Variable types: 81 continuous, 80 integer (80 binary)
Coefficient statistics:
  Matrix range     [3e-01, 8e+02]
  Objective range  [1e+00, 1e+00]
  Bounds range     [5e+02, 5e+02]
  RHS range        [1e+00, 1e+08]

MIP start from previous solve did not produce a new incumbent solution

Presolve removed 95 rows and 42 columns
Presolve time: 0.00s
Presolved: 258 rows, 119 columns, 830 nonzeros
Variable types: 59 continuous, 60 integer (60 binary)
Found heuristic solution: objective 1938.5771981
Found heuristic solution: objective 1956.2604395

Root relaxation: objective 2.000000e+03, 24 iterations, 0.00 seconds (0.00 work units)

    Nodes    |    Current Node    |     Objective Bounds      |     Work
 Expl Unexpl |  Obj  Depth IntInf | Incumbent    BestBd   Gap | It/Node Time

     0     0 2000.00000    0    2 1956.26044 2000.00000  2.24%     -    0s
H    0     0                    2000.0000000 2000.00000  0.00%     -    0s
     0     0 2000.00000    0    2 2000.00000 2000.00000  0.00%     -    0s

Explored 1 nodes (24 simplex iterations) in 0.01 seconds (0.00 work units)
Thread count was 8 (of 8 available processors)

Solution count 3: 2000 1956.26 1938.58 

Optimal solution found (tolerance 1.00e-03)
Best objective 2.000000000000e+03, best bound 2.000000000000e+03, gap 0.0000%

User-callback calls 392, time in user-callback 0.00 sec
Gurobi Optimizer version 9.5.2 build v9.5.2rc0 (mac64[arm])
Thread count: 8 physical cores, 8 logical processors, using up to 8 threads
Optimize a model with 606 rows, 245 columns and 1796 nonzeros
Model fingerprint: 0x67fe136a
Variable types: 157 continuous, 88 integer (88 binary)
Coefficient statistics:
  Matrix range     [3e-01, 8e+02]
  Objective range  [1e+00, 1e+00]
  Bounds range     [5e+02, 5e+02]
  RHS range        [1e+00, 1e+08]

MIP start from previous solve did not produce a new incumbent solution

Presolve removed 162 rows and 71 columns
Presolve time: 0.00s
Presolved: 444 rows, 174 columns, 1480 nonzeros
Variable types: 114 continuous, 60 integer (60 binary)
Found heuristic solution: objective 878.9686626

Root relaxation: objective 2.000000e+03, 128 iterations, 0.00 seconds (0.00 work units)

    Nodes    |    Current Node    |     Objective Bounds      |     Work
 Expl Unexpl |  Obj  Depth IntInf | Incumbent    BestBd   Gap | It/Node Time

H    0     0                    2000.0000000 2000.00000  0.00%     -    0s
     0     0 2000.00000    0    2 2000.00000 2000.00000  0.00%     -    0s

Explored 1 nodes (221 simplex iterations) in 0.01 seconds (0.01 work units)
Thread count was 8 (of 8 available processors)

Solution count 2: 2000 878.969 

Optimal solution found (tolerance 1.00e-03)
Best objective 2.000000000000e+03, best bound 2.000000000000e+03, gap 0.0000%

User-callback calls 390, time in user-callback 0.00 sec
Gurobi Optimizer version 9.5.2 build v9.5.2rc0 (mac64[arm])
Thread count: 8 physical cores, 8 logical processors, using up to 8 threads
Optimize a model with 859 rows, 329 columns and 2573 nonzeros
Model fingerprint: 0xe205c23c
Variable types: 233 continuous, 96 integer (96 binary)
Coefficient statistics:
  Matrix range     [3e-01, 8e+02]
  Objective range  [1e+00, 1e+00]
  Bounds range     [5e+02, 5e+02]
  RHS range        [1e+00, 1e+08]

MIP start from previous solve did not produce a new incumbent solution

Presolve removed 229 rows and 100 columns
Presolve time: 0.01s
Presolved: 630 rows, 229 columns, 2130 nonzeros
Variable types: 169 continuous, 60 integer (60 binary)
Found heuristic solution: objective 669.6947521

Root relaxation: objective 1.877415e+03, 157 iterations, 0.00 seconds (0.00 work units)

    Nodes    |    Current Node    |     Objective Bounds      |     Work
 Expl Unexpl |  Obj  Depth IntInf | Incumbent    BestBd   Gap | It/Node Time

     0     0 1877.41542    0    8  669.69475 1877.41542   180%     -    0s
H    0     0                    1856.0425982 1877.41542  1.15%     -    0s
     0     0 1869.89701    0   15 1856.04260 1869.89701  0.75%     -    0s
H    0     0                    1859.3477508 1869.89701  0.57%     -    0s
     0     0 1866.46209    0   15 1859.34775 1866.46209  0.38%     -    0s
     0     0 1865.04206    0    8 1859.34775 1865.04206  0.31%     -    0s
     0     0 1862.07806    0   11 1859.34775 1862.07806  0.15%     -    0s

Cutting planes:
  Cover: 4
  Implied bound: 13
  Clique: 4
  MIR: 13
  StrongCG: 1
  Flow cover: 10
  Relax-and-lift: 9

Explored 1 nodes (255 simplex iterations) in 0.10 seconds (0.03 work units)
Thread count was 8 (of 8 available processors)

Solution count 3: 1859.35 1856.04 669.695 

Optimal solution found (tolerance 1.00e-03)
Best objective 1.859347750848e+03, best bound 1.860767779158e+03, gap 0.0764%

User-callback calls 444, time in user-callback 0.00 sec
Gurobi Optimizer version 9.5.2 build v9.5.2rc0 (mac64[arm])
Thread count: 8 physical cores, 8 logical processors, using up to 8 threads
Optimize a model with 1112 rows, 413 columns and 3350 nonzeros
Model fingerprint: 0x568ee578
Variable types: 309 continuous, 104 integer (104 binary)
Coefficient statistics:
  Matrix range     [3e-01, 8e+02]
  Objective range  [1e+00, 1e+00]
  Bounds range     [5e+02, 5e+02]
  RHS range        [1e+00, 1e+08]

MIP start from previous solve did not produce a new incumbent solution

Presolve removed 296 rows and 129 columns
Presolve time: 0.01s
Presolved: 816 rows, 284 columns, 2780 nonzeros
Variable types: 224 continuous, 60 integer (60 binary)
Found heuristic solution: objective 669.6947521

Root relaxation: objective 1.788975e+03, 312 iterations, 0.00 seconds (0.00 work units)

    Nodes    |    Current Node    |     Objective Bounds      |     Work
 Expl Unexpl |  Obj  Depth IntInf | Incumbent    BestBd   Gap | It/Node Time

     0     0 1788.97463    0   14  669.69475 1788.97463   167%     -    0s
H    0     0                    1756.0425982 1788.97463  1.88%     -    0s
     0     0 1786.43996    0   30 1756.04260 1786.43996  1.73%     -    0s
     0     0 1783.90934    0   30 1756.04260 1783.90934  1.59%     -    0s
     0     0 1773.11932    0   14 1756.04260 1773.11932  0.97%     -    0s
     0     0 1772.49981    0   27 1756.04260 1772.49981  0.94%     -    0s
     0     0 1770.19517    0   34 1756.04260 1770.19517  0.81%     -    0s

Cutting planes:
  Gomory: 3
  Cover: 1
  Implied bound: 1
  MIR: 13
  StrongCG: 1
  Flow cover: 11

Explored 1 nodes (510 simplex iterations) in 0.10 seconds (0.05 work units)
Thread count was 8 (of 8 available processors)

Solution count 2: 1756.04 669.695 

Optimal solution found (tolerance 1.00e-03)
Best objective 1.756042598178e+03, best bound 1.756042598178e+03, gap 0.0000%

User-callback calls 455, time in user-callback 0.00 sec
Gurobi Optimizer version 9.5.2 build v9.5.2rc0 (mac64[arm])
Thread count: 8 physical cores, 8 logical processors, using up to 8 threads
Optimize a model with 1365 rows, 497 columns and 4127 nonzeros
Model fingerprint: 0xff3d4325
Variable types: 385 continuous, 112 integer (112 binary)
Coefficient statistics:
  Matrix range     [3e-01, 8e+02]
  Objective range  [1e+00, 1e+00]
  Bounds range     [5e+02, 5e+02]
  RHS range        [1e+00, 1e+08]

MIP start from previous solve did not produce a new incumbent solution

Presolve removed 363 rows and 158 columns
Presolve time: 0.02s
Presolved: 1002 rows, 339 columns, 3430 nonzeros
Variable types: 279 continuous, 60 integer (60 binary)
Found heuristic solution: objective 669.6947521

Root relaxation: objective 1.709847e+03, 505 iterations, 0.01 seconds (0.01 work units)

    Nodes    |    Current Node    |     Objective Bounds      |     Work
 Expl Unexpl |  Obj  Depth IntInf | Incumbent    BestBd   Gap | It/Node Time

     0     0 1709.84738    0   18  669.69475 1709.84738   155%     -    0s
H    0     0                    1399.0007496 1709.84738  22.2%     -    0s
H    0     0                    1669.6947521 1709.84738  2.40%     -    0s
     0     0 1709.84738    0   36 1669.69475 1709.84738  2.40%     -    0s
     0     0 1709.84738    0   26 1669.69475 1709.84738  2.40%     -    0s
     0     0 1705.54072    0   23 1669.69475 1705.54072  2.15%     -    0s
     0     0 1692.76248    0   18 1669.69475 1692.76248  1.38%     -    0s
     0     0 1691.41292    0   33 1669.69475 1691.41292  1.30%     -    0s
     0     0 1676.01699    0   19 1669.69475 1676.01699  0.38%     -    0s
     0     0 1675.08388    0   30 1669.69475 1675.08388  0.32%     -    0s
     0     0 1675.08388    0   35 1669.69475 1675.08388  0.32%     -    0s

Cutting planes:
  MIR: 16
  Flow cover: 9

Explored 1 nodes (703 simplex iterations) in 0.13 seconds (0.09 work units)
Thread count was 8 (of 8 available processors)

Solution count 3: 1669.69 1399 669.695 

Optimal solution found (tolerance 1.00e-03)
Best objective 1.669694752132e+03, best bound 1.670895401332e+03, gap 0.0719%

User-callback calls 481, time in user-callback 0.00 sec
